% Logging successfully configured
%%%mzn-stat: initTime=0.008317654
%%%mzn-stat: objective=745
%%%mzn-stat: nodes=501
%%%mzn-stat: restarts=0
%%%mzn-stat: peakDepth=409
%%%mzn-stat: solveTime=0.024044652
%%%mzn-stat: variables=849
%%%mzn-stat: propagators=596
%%%mzn-stat: failures=69
%%%mzn-stat: propagations=3944
%%%mzn-stat: nogoods=69
%%%mzn-stat: numAtomicConstraintsPropagated=0
%%%mzn-stat: allDifferentNumber1PropagationsTotal=351
%%%mzn-stat: allDifferentNumber1PropagationsThatFoundConflict=2
%%%mzn-stat: allDifferentNumber1PropagationsThatPruned=201
%%%mzn-stat: allDifferentNumber1TotalValuesPruned=694
%%%mzn-stat: allDifferentNumber1TotalHallSetSizeConflict=11
%%%mzn-stat: allDifferentNumber1NumberOfConflicts=2
%%%mzn-stat: allDifferentNumber1MaxHallSetSizeConflict=6
%%%mzn-stat: allDifferentNumber1TotalPruningHallSetSize=1606
%%%mzn-stat: allDifferentNumber1NumberOfPruningExplanations=694
%%%mzn-stat: allDifferentNumber1MaxPruningHallSetSize=26
%%%mzn-stat: allDifferentNumber1TotalFixedEdgesAtConflict=71
%%%mzn-stat: allDifferentNumber1TotalVarsInvolvedInPruning=611
%%%mzn-stat: allDifferentNumber1MaxValuesPrunedFromSingleVar=4
%%%mzn-stat: allDifferentNumber1TotalSccSizeAtPruning=885
%%%mzn-stat: allDifferentNumber1NumberOfSccPruningCalls=201
%%%mzn-stat: circuitNumber2PropagationsThatFoundConflict=67
%%%mzn-stat: circuitNumber2TotalFixedEdgesAtConflict=2975
%%%mzn-stat: circuitNumber2NumberOfConflicts=67
%%%mzn-stat: circuitNumber2PropagationsThatPruned=37
%%%mzn-stat: circuitNumber2PropagationsTotal=212
%%%mzn-stat: AverageConflictSize=30.55072463768116
%%%mzn-stat: NumUnitNogoodsLearned=0
%%%mzn-stat: AverageLearnedNogoodLength=29.652173913043477
%%%mzn-stat: AverageBacktrackAmount=0
%%%mzn-stat: AverageLbd=22.27536231884058
%%%mzn-stat: 2AutonomousSearchNumBackupCalled=375
%%%mzn-stat: 2AutonomousSearchNumPredicatesRemoved=0
%%%mzn-stat: 2AutonomousSearchNumCalls=376
%%%mzn-stat: 2AutonomousSearchNumPredicatesAdded=1139
%%%mzn-stat: 2AutonomousSearchAverageSizeOfHeap=3.029255319148936
%%%mzn-stat: 2AutonomousSearchNumAssignedPredicatesEncountered=1139
%%%mzn-stat-end
maxleg = 745;
succ = array1d(1..50,[2, 12, 4, 6, 3, 7, 11, 9, 10, 14, 15, 13, 28, 19, 16, 18, 8, 22, 23, 24, 1, 26, 25, 35, 29, 45, 5, 36, 37, 44, 50, 17, 20, 32, 42, 33, 21, 49, 34, 30, 27, 43, 46, 41, 48, 31, 39, 38, 47, 40]);
% time elapsed: 0.21 s
----------
%%%mzn-stat: initTime=0.008317654
%%%mzn-stat: objective=435
%%%mzn-stat: nodes=979
%%%mzn-stat: restarts=0
%%%mzn-stat: peakDepth=409
%%%mzn-stat: solveTime=0.046839145
%%%mzn-stat: variables=849
%%%mzn-stat: propagators=596
%%%mzn-stat: failures=136
%%%mzn-stat: propagations=6543
%%%mzn-stat: nogoods=136
%%%mzn-stat: numAtomicConstraintsPropagated=0
%%%mzn-stat: allDifferentNumber1PropagationsTotal=642
%%%mzn-stat: allDifferentNumber1PropagationsThatFoundConflict=2
%%%mzn-stat: allDifferentNumber1PropagationsThatPruned=372
%%%mzn-stat: allDifferentNumber1TotalValuesPruned=1219
%%%mzn-stat: allDifferentNumber1TotalHallSetSizeConflict=11
%%%mzn-stat: allDifferentNumber1NumberOfConflicts=2
%%%mzn-stat: allDifferentNumber1MaxHallSetSizeConflict=6
%%%mzn-stat: allDifferentNumber1TotalPruningHallSetSize=2549
%%%mzn-stat: allDifferentNumber1NumberOfPruningExplanations=1219
%%%mzn-stat: allDifferentNumber1MaxPruningHallSetSize=26
%%%mzn-stat: allDifferentNumber1TotalFixedEdgesAtConflict=71
%%%mzn-stat: allDifferentNumber1TotalVarsInvolvedInPruning=1084
%%%mzn-stat: allDifferentNumber1MaxValuesPrunedFromSingleVar=4
%%%mzn-stat: allDifferentNumber1TotalSccSizeAtPruning=1325
%%%mzn-stat: allDifferentNumber1NumberOfSccPruningCalls=372
%%%mzn-stat: circuitNumber2PropagationsThatFoundConflict=134
%%%mzn-stat: circuitNumber2TotalFixedEdgesAtConflict=6084
%%%mzn-stat: circuitNumber2NumberOfConflicts=134
%%%mzn-stat: circuitNumber2PropagationsThatPruned=59
%%%mzn-stat: circuitNumber2PropagationsTotal=397
%%%mzn-stat: AverageConflictSize=32.97794117647059
%%%mzn-stat: NumUnitNogoodsLearned=0
%%%mzn-stat: AverageLearnedNogoodLength=31.316176470588236
%%%mzn-stat: AverageBacktrackAmount=0
%%%mzn-stat: AverageLbd=23.66176470588235
%%%mzn-stat: 2AutonomousSearchNumBackupCalled=745
%%%mzn-stat: 2AutonomousSearchNumPredicatesRemoved=0
%%%mzn-stat: 2AutonomousSearchNumCalls=747
%%%mzn-stat: 2AutonomousSearchNumPredicatesAdded=1737
%%%mzn-stat: 2AutonomousSearchAverageSizeOfHeap=3.0548862115127173
%%%mzn-stat: 2AutonomousSearchNumAssignedPredicatesEncountered=2282
%%%mzn-stat-end
maxleg = 435;
succ = array1d(1..50,[2, 12, 4, 6, 3, 7, 11, 9, 10, 14, 15, 13, 28, 19, 16, 18, 8, 22, 23, 24, 1, 26, 25, 35, 29, 45, 5, 46, 37, 44, 50, 17, 36, 32, 31, 21, 33, 49, 34, 30, 27, 20, 42, 41, 48, 43, 39, 38, 47, 40]);
% time elapsed: 0.21 s
----------
%%%mzn-stat: initTime=0.008317654
%%%mzn-stat: objective=346
%%%mzn-stat: nodes=1600
%%%mzn-stat: restarts=0
%%%mzn-stat: peakDepth=409
%%%mzn-stat: solveTime=0.115787013
%%%mzn-stat: variables=849
%%%mzn-stat: propagators=596
%%%mzn-stat: failures=333
%%%mzn-stat: propagations=13047
%%%mzn-stat: nogoods=333
%%%mzn-stat: numAtomicConstraintsPropagated=0
%%%mzn-stat: allDifferentNumber1PropagationsTotal=1423
%%%mzn-stat: allDifferentNumber1PropagationsThatFoundConflict=5
%%%mzn-stat: allDifferentNumber1PropagationsThatPruned=861
%%%mzn-stat: allDifferentNumber1TotalValuesPruned=2582
%%%mzn-stat: allDifferentNumber1TotalHallSetSizeConflict=26
%%%mzn-stat: allDifferentNumber1NumberOfConflicts=5
%%%mzn-stat: allDifferentNumber1MaxHallSetSizeConflict=8
%%%mzn-stat: allDifferentNumber1TotalPruningHallSetSize=5327
%%%mzn-stat: allDifferentNumber1NumberOfPruningExplanations=2582
%%%mzn-stat: allDifferentNumber1MaxPruningHallSetSize=26
%%%mzn-stat: allDifferentNumber1TotalFixedEdgesAtConflict=179
%%%mzn-stat: allDifferentNumber1TotalVarsInvolvedInPruning=2297
%%%mzn-stat: allDifferentNumber1MaxValuesPrunedFromSingleVar=4
%%%mzn-stat: allDifferentNumber1TotalSccSizeAtPruning=2904
%%%mzn-stat: allDifferentNumber1NumberOfSccPruningCalls=861
%%%mzn-stat: circuitNumber2PropagationsThatFoundConflict=328
%%%mzn-stat: circuitNumber2TotalFixedEdgesAtConflict=14875
%%%mzn-stat: circuitNumber2NumberOfConflicts=328
%%%mzn-stat: circuitNumber2PropagationsThatPruned=124
%%%mzn-stat: circuitNumber2PropagationsTotal=880
%%%mzn-stat: AverageConflictSize=35.252252252252255
%%%mzn-stat: NumUnitNogoodsLearned=0
%%%mzn-stat: AverageLearnedNogoodLength=35.108108108108105
%%%mzn-stat: AverageBacktrackAmount=0
%%%mzn-stat: AverageLbd=25.45045045045045
%%%mzn-stat: 2AutonomousSearchNumBackupCalled=1087
%%%mzn-stat: 2AutonomousSearchNumPredicatesRemoved=0
%%%mzn-stat: 2AutonomousSearchNumCalls=1090
%%%mzn-stat: 2AutonomousSearchNumPredicatesAdded=2705
%%%mzn-stat: 2AutonomousSearchAverageSizeOfHeap=3.2678899082568806
%%%mzn-stat: 2AutonomousSearchNumAssignedPredicatesEncountered=3562
%%%mzn-stat-end
maxleg = 346;
succ = array1d(1..50,[2, 12, 4, 6, 3, 7, 11, 9, 10, 14, 15, 13, 28, 19, 16, 18, 8, 22, 23, 24, 1, 27, 25, 35, 30, 38, 29, 46, 37, 40, 36, 17, 44, 32, 42, 33, 21, 45, 34, 50, 26, 49, 20, 41, 48, 43, 39, 5, 47, 31]);
% time elapsed: 0.27 s
----------
%%%mzn-stat: initTime=0.008317654
%%%mzn-stat: objective=331
%%%mzn-stat: nodes=2016
%%%mzn-stat: restarts=0
%%%mzn-stat: peakDepth=409
%%%mzn-stat: solveTime=0.137469233
%%%mzn-stat: variables=849
%%%mzn-stat: propagators=596
%%%mzn-stat: failures=382
%%%mzn-stat: propagations=15811
%%%mzn-stat: nogoods=382
%%%mzn-stat: numAtomicConstraintsPropagated=0
%%%mzn-stat: allDifferentNumber1PropagationsTotal=1678
%%%mzn-stat: allDifferentNumber1PropagationsThatFoundConflict=12
%%%mzn-stat: allDifferentNumber1PropagationsThatPruned=1004
%%%mzn-stat: allDifferentNumber1TotalValuesPruned=3315
%%%mzn-stat: allDifferentNumber1TotalHallSetSizeConflict=97
%%%mzn-stat: allDifferentNumber1NumberOfConflicts=12
%%%mzn-stat: allDifferentNumber1MaxHallSetSizeConflict=12
%%%mzn-stat: allDifferentNumber1TotalPruningHallSetSize=8409
%%%mzn-stat: allDifferentNumber1NumberOfPruningExplanations=3315
%%%mzn-stat: allDifferentNumber1MaxPruningHallSetSize=42
%%%mzn-stat: allDifferentNumber1TotalFixedEdgesAtConflict=462
%%%mzn-stat: allDifferentNumber1TotalVarsInvolvedInPruning=2857
%%%mzn-stat: allDifferentNumber1MaxValuesPrunedFromSingleVar=4
%%%mzn-stat: allDifferentNumber1TotalSccSizeAtPruning=4320
%%%mzn-stat: allDifferentNumber1NumberOfSccPruningCalls=1004
%%%mzn-stat: circuitNumber2PropagationsThatFoundConflict=369
%%%mzn-stat: circuitNumber2TotalFixedEdgesAtConflict=16604
%%%mzn-stat: circuitNumber2NumberOfConflicts=369
%%%mzn-stat: circuitNumber2PropagationsThatPruned=160
%%%mzn-stat: circuitNumber2PropagationsTotal=1027
%%%mzn-stat: AverageConflictSize=33.410994764397905
%%%mzn-stat: NumUnitNogoodsLearned=0
%%%mzn-stat: AverageLearnedNogoodLength=35.890052356020945
%%%mzn-stat: AverageBacktrackAmount=0
%%%mzn-stat: AverageLbd=25.602094240837697
%%%mzn-stat: 2AutonomousSearchNumBackupCalled=1417
%%%mzn-stat: 2AutonomousSearchNumPredicatesRemoved=0
%%%mzn-stat: 2AutonomousSearchNumCalls=1421
%%%mzn-stat: 2AutonomousSearchNumPredicatesAdded=3653
%%%mzn-stat: 2AutonomousSearchAverageSizeOfHeap=3.529204785362421
%%%mzn-stat: 2AutonomousSearchNumAssignedPredicatesEncountered=5015
%%%mzn-stat-end
maxleg = 331;
succ = array1d(1..50,[2, 12, 5, 6, 45, 3, 11, 4, 8, 9, 15, 13, 28, 10, 16, 18, 32, 22, 14, 24, 1, 27, 19, 35, 23, 38, 29, 36, 37, 40, 50, 20, 44, 17, 42, 33, 21, 49, 34, 7, 25, 43, 46, 41, 48, 31, 39, 26, 47, 30]);
% time elapsed: 0.30 s
----------
%%%mzn-stat: initTime=0.008317654
%%%mzn-stat: objective=309
%%%mzn-stat: nodes=2412
%%%mzn-stat: restarts=0
%%%mzn-stat: peakDepth=409
%%%mzn-stat: solveTime=0.146581077
%%%mzn-stat: variables=849
%%%mzn-stat: propagators=596
%%%mzn-stat: failures=398
%%%mzn-stat: propagations=17609
%%%mzn-stat: nogoods=398
%%%mzn-stat: numAtomicConstraintsPropagated=0
%%%mzn-stat: allDifferentNumber1PropagationsTotal=1817
%%%mzn-stat: allDifferentNumber1PropagationsThatFoundConflict=12
%%%mzn-stat: allDifferentNumber1PropagationsThatPruned=1086
%%%mzn-stat: allDifferentNumber1TotalValuesPruned=3700
%%%mzn-stat: allDifferentNumber1TotalHallSetSizeConflict=97
%%%mzn-stat: allDifferentNumber1NumberOfConflicts=12
%%%mzn-stat: allDifferentNumber1MaxHallSetSizeConflict=12
%%%mzn-stat: allDifferentNumber1TotalPruningHallSetSize=9771
%%%mzn-stat: allDifferentNumber1NumberOfPruningExplanations=3700
%%%mzn-stat: allDifferentNumber1MaxPruningHallSetSize=43
%%%mzn-stat: allDifferentNumber1TotalFixedEdgesAtConflict=462
%%%mzn-stat: allDifferentNumber1TotalVarsInvolvedInPruning=3178
%%%mzn-stat: allDifferentNumber1MaxValuesPrunedFromSingleVar=7
%%%mzn-stat: allDifferentNumber1TotalSccSizeAtPruning=4855
%%%mzn-stat: allDifferentNumber1NumberOfSccPruningCalls=1086
%%%mzn-stat: circuitNumber2PropagationsThatFoundConflict=385
%%%mzn-stat: circuitNumber2TotalFixedEdgesAtConflict=17263
%%%mzn-stat: circuitNumber2NumberOfConflicts=385
%%%mzn-stat: circuitNumber2PropagationsThatPruned=175
%%%mzn-stat: circuitNumber2PropagationsTotal=1109
%%%mzn-stat: AverageConflictSize=33.02512562814071
%%%mzn-stat: NumUnitNogoodsLearned=0
%%%mzn-stat: AverageLearnedNogoodLength=35.881909547738694
%%%mzn-stat: AverageBacktrackAmount=0
%%%mzn-stat: AverageLbd=25.35427135678392
%%%mzn-stat: 2AutonomousSearchNumBackupCalled=1756
%%%mzn-stat: 2AutonomousSearchNumPredicatesRemoved=0
%%%mzn-stat: 2AutonomousSearchNumCalls=1761
%%%mzn-stat: 2AutonomousSearchNumPredicatesAdded=4421
%%%mzn-stat: 2AutonomousSearchAverageSizeOfHeap=3.6865417376490632
%%%mzn-stat: 2AutonomousSearchNumAssignedPredicatesEncountered=6492
%%%mzn-stat-end
maxleg = 309;
succ = array1d(1..50,[2, 12, 5, 6, 45, 7, 11, 4, 8, 9, 15, 13, 28, 10, 16, 18, 32, 22, 14, 34, 1, 27, 19, 20, 23, 41, 29, 36, 37, 40, 35, 39, 30, 17, 42, 33, 44, 3, 47, 50, 25, 43, 46, 21, 48, 24, 49, 26, 38, 31]);
% time elapsed: 0.31 s
----------
%%%mzn-stat: initTime=0.008317654
%%%mzn-stat: objective=305
%%%mzn-stat: nodes=2781
%%%mzn-stat: restarts=0
%%%mzn-stat: peakDepth=409
%%%mzn-stat: solveTime=0.150735694
%%%mzn-stat: variables=849
%%%mzn-stat: propagators=596
%%%mzn-stat: failures=399
%%%mzn-stat: propagations=18850
%%%mzn-stat: nogoods=399
%%%mzn-stat: numAtomicConstraintsPropagated=0
%%%mzn-stat: allDifferentNumber1PropagationsTotal=1906
%%%mzn-stat: allDifferentNumber1PropagationsThatFoundConflict=12
%%%mzn-stat: allDifferentNumber1PropagationsThatPruned=1133
%%%mzn-stat: allDifferentNumber1TotalValuesPruned=3916
%%%mzn-stat: allDifferentNumber1TotalHallSetSizeConflict=97
%%%mzn-stat: allDifferentNumber1NumberOfConflicts=12
%%%mzn-stat: allDifferentNumber1MaxHallSetSizeConflict=12
%%%mzn-stat: allDifferentNumber1TotalPruningHallSetSize=10569
%%%mzn-stat: allDifferentNumber1NumberOfPruningExplanations=3916
%%%mzn-stat: allDifferentNumber1MaxPruningHallSetSize=43
%%%mzn-stat: allDifferentNumber1TotalFixedEdgesAtConflict=462
%%%mzn-stat: allDifferentNumber1TotalVarsInvolvedInPruning=3367
%%%mzn-stat: allDifferentNumber1MaxValuesPrunedFromSingleVar=7
%%%mzn-stat: allDifferentNumber1TotalSccSizeAtPruning=5136
%%%mzn-stat: allDifferentNumber1NumberOfSccPruningCalls=1133
%%%mzn-stat: circuitNumber2PropagationsThatFoundConflict=386
%%%mzn-stat: circuitNumber2TotalFixedEdgesAtConflict=17309
%%%mzn-stat: circuitNumber2NumberOfConflicts=386
%%%mzn-stat: circuitNumber2PropagationsThatPruned=179
%%%mzn-stat: circuitNumber2PropagationsTotal=1156
%%%mzn-stat: AverageConflictSize=32.95238095238095
%%%mzn-stat: NumUnitNogoodsLearned=0
%%%mzn-stat: AverageLearnedNogoodLength=35.80952380952381
%%%mzn-stat: AverageBacktrackAmount=0
%%%mzn-stat: AverageLbd=25.303258145363408
%%%mzn-stat: 2AutonomousSearchNumBackupCalled=2083
%%%mzn-stat: 2AutonomousSearchNumPredicatesRemoved=0
%%%mzn-stat: 2AutonomousSearchNumCalls=2089
%%%mzn-stat: 2AutonomousSearchNumPredicatesAdded=4504
%%%mzn-stat: 2AutonomousSearchAverageSizeOfHeap=3.814743896601245
%%%mzn-stat: 2AutonomousSearchNumAssignedPredicatesEncountered=7969
%%%mzn-stat-end
maxleg = 305;
succ = array1d(1..50,[2, 12, 5, 6, 45, 7, 11, 4, 8, 9, 15, 13, 28, 10, 16, 18, 32, 22, 14, 34, 1, 27, 19, 20, 23, 41, 29, 36, 37, 40, 35, 47, 30, 39, 42, 33, 44, 3, 17, 50, 25, 43, 46, 21, 48, 24, 49, 26, 38, 31]);
% time elapsed: 0.31 s
----------
==========
% time elapsed: 0.31 s
%%%mzn-stat: initTime=0.008317654
%%%mzn-stat: objective=305
%%%mzn-stat: nodes=2795
%%%mzn-stat: restarts=0
%%%mzn-stat: peakDepth=409
%%%mzn-stat: solveTime=0.15257284
%%%mzn-stat: variables=849
%%%mzn-stat: propagators=596
%%%mzn-stat: failures=405
%%%mzn-stat: propagations=19244
%%%mzn-stat: nogoods=405
%%%mzn-stat: numAtomicConstraintsPropagated=0
%%%mzn-stat: allDifferentNumber1PropagationsTotal=1938
%%%mzn-stat: allDifferentNumber1PropagationsThatFoundConflict=12
%%%mzn-stat: allDifferentNumber1PropagationsThatPruned=1151
%%%mzn-stat: allDifferentNumber1TotalValuesPruned=3997
%%%mzn-stat: allDifferentNumber1TotalHallSetSizeConflict=97
%%%mzn-stat: allDifferentNumber1NumberOfConflicts=12
%%%mzn-stat: allDifferentNumber1MaxHallSetSizeConflict=12
%%%mzn-stat: allDifferentNumber1TotalPruningHallSetSize=10656
%%%mzn-stat: allDifferentNumber1NumberOfPruningExplanations=3997
%%%mzn-stat: allDifferentNumber1MaxPruningHallSetSize=43
%%%mzn-stat: allDifferentNumber1TotalFixedEdgesAtConflict=462
%%%mzn-stat: allDifferentNumber1TotalVarsInvolvedInPruning=3448
%%%mzn-stat: allDifferentNumber1MaxValuesPrunedFromSingleVar=7
%%%mzn-stat: allDifferentNumber1TotalSccSizeAtPruning=5160
%%%mzn-stat: allDifferentNumber1NumberOfSccPruningCalls=1151
%%%mzn-stat: circuitNumber2PropagationsThatFoundConflict=392
%%%mzn-stat: circuitNumber2TotalFixedEdgesAtConflict=17346
%%%mzn-stat: circuitNumber2NumberOfConflicts=392
%%%mzn-stat: circuitNumber2PropagationsThatPruned=179
%%%mzn-stat: circuitNumber2PropagationsTotal=1174
%%%mzn-stat: AverageConflictSize=32.523456790123454
%%%mzn-stat: NumUnitNogoodsLearned=1
%%%mzn-stat: AverageLearnedNogoodLength=35.407407407407405
%%%mzn-stat: AverageBacktrackAmount=0
%%%mzn-stat: AverageLbd=24.960493827160494
%%%mzn-stat: 2AutonomousSearchNumBackupCalled=2083
%%%mzn-stat: 2AutonomousSearchNumPredicatesRemoved=0
%%%mzn-stat: 2AutonomousSearchNumCalls=2089
%%%mzn-stat: 2AutonomousSearchNumPredicatesAdded=4842
%%%mzn-stat: 2AutonomousSearchAverageSizeOfHeap=3.814743896601245
%%%mzn-stat: 2AutonomousSearchNumAssignedPredicatesEncountered=7969
%%%mzn-stat-end
